(set-info :status unknown)
(declare-fun %Y () (_ BitVec 11))
(declare-fun C2 () (_ BitVec 11))
(declare-fun C1 () (_ BitVec 8))
(declare-fun %X () (_ BitVec 8))
(assert
 (let ((?x20396 (ite (and (distinct ((_ extract 3 2) C1) (_ bv0 2)) true) (ite (and (distinct ((_ extract 3 3) C1) (_ bv0 1)) true) (_ bv3 11) (_ bv2 11)) (ite (and (distinct ((_ extract 1 1) C1) (_ bv0 1)) true) (_ bv1 11) (_ bv0 11)))))
 (let ((?x9890 (ite (and (distinct ((_ extract 7 6) C1) (_ bv0 2)) true) (ite (and (distinct ((_ extract 7 7) C1) (_ bv0 1)) true) (_ bv7 11) (_ bv6 11)) (ite (and (distinct ((_ extract 5 5) C1) (_ bv0 1)) true) (_ bv5 11) (_ bv4 11)))))
 (let ((?x6652 (ite (and (distinct ((_ extract 2 2) C2) (_ bv0 1)) true) (_ bv2 11) (ite (and (distinct ((_ extract 1 1) C2) (_ bv0 1)) true) (_ bv1 11) (_ bv0 11)))))
 (let ((?x4263 (ite (and (distinct ((_ extract 5 5) C2) (_ bv0 1)) true) (_ bv5 11) (ite (and (distinct ((_ extract 4 4) C2) (_ bv0 1)) true) (_ bv4 11) (_ bv3 11)))))
 (let ((?x11956 (ite (and (distinct ((_ extract 8 8) C2) (_ bv0 1)) true) (_ bv8 11) (ite (and (distinct ((_ extract 7 7) C2) (_ bv0 1)) true) (_ bv7 11) (_ bv6 11)))))
 (let ((?x12062 (ite (and (distinct ((_ extract 10 9) C2) (_ bv0 2)) true) (ite (and (distinct ((_ extract 10 10) C2) (_ bv0 1)) true) (_ bv10 11) (_ bv9 11)) ?x11956)))
 (let ((?x3901 (ite (and (distinct ((_ extract 10 6) C2) (_ bv0 5)) true) ?x12062 (ite (and (distinct ((_ extract 5 3) C2) (_ bv0 3)) true) ?x4263 ?x6652))))
 (let ((?x8788 (bvsub ?x3901 (ite (and (distinct ((_ extract 7 4) C1) (_ bv0 4)) true) ?x9890 ?x20396))))
 (let ((?x16659 (bvor %Y C2)))
 (let ((?x9359 (ite (= (ite (and (distinct (bvand %X C1) (_ bv0 8)) true) (_ bv1 1) (_ bv0 1)) (_ bv1 1)) %Y ?x16659)))
 (let (($x22469 (and (distinct ?x9359 (bvor (bvxor (bvshl ((_ zero_extend 3) (bvand %X C1)) ?x8788) C2) %Y)) true)))
 (let ((?x2542 (ite (and (distinct ((_ extract 3 2) C1) (_ bv0 2)) true) (ite (and (distinct ((_ extract 3 3) C1) (_ bv0 1)) true) (_ bv3 32) (_ bv2 32)) (ite (and (distinct ((_ extract 1 1) C1) (_ bv0 1)) true) (_ bv1 32) (_ bv0 32)))))
 (let ((?x15514 (ite (and (distinct ((_ extract 7 6) C1) (_ bv0 2)) true) (ite (and (distinct ((_ extract 7 7) C1) (_ bv0 1)) true) (_ bv7 32) (_ bv6 32)) (ite (and (distinct ((_ extract 5 5) C1) (_ bv0 1)) true) (_ bv5 32) (_ bv4 32)))))
 (let ((?x7776 (ite (and (distinct ((_ extract 2 2) C2) (_ bv0 1)) true) (_ bv2 32) (ite (and (distinct ((_ extract 1 1) C2) (_ bv0 1)) true) (_ bv1 32) (_ bv0 32)))))
 (let ((?x6780 (ite (and (distinct ((_ extract 5 5) C2) (_ bv0 1)) true) (_ bv5 32) (ite (and (distinct ((_ extract 4 4) C2) (_ bv0 1)) true) (_ bv4 32) (_ bv3 32)))))
 (let ((?x3184 (ite (and (distinct ((_ extract 8 8) C2) (_ bv0 1)) true) (_ bv8 32) (ite (and (distinct ((_ extract 7 7) C2) (_ bv0 1)) true) (_ bv7 32) (_ bv6 32)))))
 (let ((?x20516 (ite (and (distinct ((_ extract 10 9) C2) (_ bv0 2)) true) (ite (and (distinct ((_ extract 10 10) C2) (_ bv0 1)) true) (_ bv10 32) (_ bv9 32)) ?x3184)))
 (let ((?x7778 (ite (and (distinct ((_ extract 10 6) C2) (_ bv0 5)) true) ?x20516 (ite (and (distinct ((_ extract 5 3) C2) (_ bv0 3)) true) ?x6780 ?x7776))))
 (and (and (and (distinct C1 (_ bv0 8)) true) (= (bvand C1 (bvsub C1 (_ bv1 8))) (_ bv0 8))) (and (and (distinct C2 (_ bv0 11)) true) (= (bvand C2 (bvsub C2 (_ bv1 11))) (_ bv0 11))) (bvsge ?x7778 (ite (and (distinct ((_ extract 7 4) C1) (_ bv0 4)) true) ?x15514 ?x2542)) $x22469))))))))))))))))))))
(check-sat)
